(set-logic QF_S)
(declare-fun x () String)
(declare-fun y () String)
(declare-fun z () Int)
(assert (not (= (str.suffixof "B" (str.replace x "B" "")) (str.suffixof "B" (str.replace x "B" "A")))))
(check-sat)
